c CNF file corresponding to a (partial) station packing problem.
p cnf 828 229
1 2 3 4 5 6 7 8 9 10 11 12 13 14 0
-1 -2 0
-1 -3 0
-1 -4 0
-1 -5 0
-1 -6 0
-1 -7 0
-1 -8 0
-1 -9 0
-1 -10 0
-1 -11 0
-1 -12 0
-1 -13 0
-1 -14 0
-2 -3 0
-2 -4 0
-2 -5 0
-2 -6 0
-2 -7 0
-2 -8 0
-2 -9 0
-2 -10 0
-2 -11 0
-2 -12 0
-2 -13 0
-2 -14 0
-3 -4 0
-3 -5 0
-3 -6 0
-3 -7 0
-3 -8 0
-3 -9 0
-3 -10 0
-3 -11 0
-3 -12 0
-3 -13 0
-3 -14 0
-4 -5 0
-4 -6 0
-4 -7 0
-4 -8 0
-4 -9 0
-4 -10 0
-4 -11 0
-4 -12 0
-4 -13 0
-4 -14 0
-5 -6 0
-5 -7 0
-5 -8 0
-5 -9 0
-5 -10 0
-5 -11 0
-5 -12 0
-5 -13 0
-5 -14 0
-6 -7 0
-6 -8 0
-6 -9 0
-6 -10 0
-6 -11 0
-6 -12 0
-6 -13 0
-6 -14 0
-7 -8 0
-7 -9 0
-7 -10 0
-7 -11 0
-7 -12 0
-7 -13 0
-7 -14 0
-8 -9 0
-8 -10 0
-8 -11 0
-8 -12 0
-8 -13 0
-8 -14 0
-9 -10 0
-9 -11 0
-9 -12 0
-9 -13 0
-9 -14 0
-10 -11 0
-10 -12 0
-10 -13 0
-10 -14 0
-11 -12 0
-11 -13 0
-11 -14 0
-12 -13 0
-12 -14 0
-13 -14 0
812 813 814 815 816 817 818 819 820 821 822 823 824 825 826 827 828 0
-812 -813 0
-812 -814 0
-812 -815 0
-812 -816 0
-812 -817 0
-812 -818 0
-812 -819 0
-812 -820 0
-812 -821 0
-812 -822 0
-812 -823 0
-812 -824 0
-812 -825 0
-812 -826 0
-812 -827 0
-812 -828 0
-813 -814 0
-813 -815 0
-813 -816 0
-813 -817 0
-813 -818 0
-813 -819 0
-813 -820 0
-813 -821 0
-813 -822 0
-813 -823 0
-813 -824 0
-813 -825 0
-813 -826 0
-813 -827 0
-813 -828 0
-814 -815 0
-814 -816 0
-814 -817 0
-814 -818 0
-814 -819 0
-814 -820 0
-814 -821 0
-814 -822 0
-814 -823 0
-814 -824 0
-814 -825 0
-814 -826 0
-814 -827 0
-814 -828 0
-815 -816 0
-815 -817 0
-815 -818 0
-815 -819 0
-815 -820 0
-815 -821 0
-815 -822 0
-815 -823 0
-815 -824 0
-815 -825 0
-815 -826 0
-815 -827 0
-815 -828 0
-816 -817 0
-816 -818 0
-816 -819 0
-816 -820 0
-816 -821 0
-816 -822 0
-816 -823 0
-816 -824 0
-816 -825 0
-816 -826 0
-816 -827 0
-816 -828 0
-817 -818 0
-817 -819 0
-817 -820 0
-817 -821 0
-817 -822 0
-817 -823 0
-817 -824 0
-817 -825 0
-817 -826 0
-817 -827 0
-817 -828 0
-818 -819 0
-818 -820 0
-818 -821 0
-818 -822 0
-818 -823 0
-818 -824 0
-818 -825 0
-818 -826 0
-818 -827 0
-818 -828 0
-819 -820 0
-819 -821 0
-819 -822 0
-819 -823 0
-819 -824 0
-819 -825 0
-819 -826 0
-819 -827 0
-819 -828 0
-820 -821 0
-820 -822 0
-820 -823 0
-820 -824 0
-820 -825 0
-820 -826 0
-820 -827 0
-820 -828 0
-821 -822 0
-821 -823 0
-821 -824 0
-821 -825 0
-821 -826 0
-821 -827 0
-821 -828 0
-822 -823 0
-822 -824 0
-822 -825 0
-822 -826 0
-822 -827 0
-822 -828 0
-823 -824 0
-823 -825 0
-823 -826 0
-823 -827 0
-823 -828 0
-824 -825 0
-824 -826 0
-824 -827 0
-824 -828 0
-825 -826 0
-825 -827 0
-825 -828 0
-826 -827 0
-826 -828 0
-827 -828 0
